* SDPA solves a minimization dual problem, while we express a maximization problem 
* also, the original objective has constant term cte = 0.0 (constant terms are not supported by SDPA)
* the real objective is thus cte - obj_SDPA value
1
1
5
4.0
0 1 1 1 -1.0
0 1 2 2 -1.0
0 1 3 3 -1.0
0 1 4 4 -1.0
0 1 5 5 -1.0
1 1 2 4 -1.0
1 1 3 4 -1.0
1 1 2 5 -1.0
1 1 3 5 1.0
